p cnf 118 397
-4 -2 0
-4 -3 0
2 3 4 0
-5 1 0
-5 -4 0
-1 4 5 0
7 -5 0
7 6 0
5 -6 -7 0
-10 8 0
-10 -9 0
-8 9 10 0
-12 10 0
-12 -11 0
-10 11 12 0
13 -7 0
13 -12 0
7 12 -13 0
-14 9 0
-14 -11 0
-9 11 14 0
-15 -16 -17 0
15 16 -17 0
-15 16 17 0
15 -16 17 0
-14 17 -18 0
14 -17 -18 0
-14 -17 18 0
14 17 18 0
-19 9 0
-19 -18 0
-9 18 19 0
6 -4 -20 0
-6 4 -20 0
6 4 20 0
-6 -4 20 0
-20 -9 -21 0
20 9 -21 0
-20 9 21 0
20 -9 21 0
-21 8 -22 0
21 -8 -22 0
-21 -8 22 0
21 8 22 0
23 -11 0
23 8 0
11 -8 -23 0
24 -22 0
24 -23 0
22 23 -24 0
27 25 0
27 26 0
-25 -26 -27 0
28 -24 0
28 -27 0
24 27 -28 0
-19 28 -29 0
19 -28 -29 0
-19 -28 29 0
19 28 29 0
-30 -13 0
-30 29 0
13 -29 30 0
-3 -9 -31 0
3 9 -31 0
-3 9 31 0
3 -9 31 0
3 -31 -32 0
-3 31 -32 0
3 31 32 0
-3 -31 32 0
-33 -32 0
-33 15 0
32 -15 33 0
33 6 -34 0
-33 -6 -34 0
33 -6 34 0
-33 6 34 0
-35 -17 0
-35 22 0
17 -22 35 0
-35 -23 -36 0
35 23 -36 0
-35 23 36 0
35 -23 36 0
23 3 -37 0
-23 -3 -37 0
23 -3 37 0
-23 3 37 0
16 37 -38 0
-16 -37 -38 0
16 -37 38 0
-16 37 38 0
-39 36 0
-39 -38 0
-36 38 39 0
1 -40 -41 0
-1 40 -41 0
1 40 41 0
-1 -40 41 0
-8 42 -43 0
8 -42 -43 0
-8 -42 43 0
8 42 43 0
-44 41 0
-44 43 0
-41 -43 44 0
-45 -11 0
-45 -39 0
11 39 45 0
-46 -44 0
-46 -45 0
44 45 46 0
39 46 -47 0
-39 -46 -47 0
39 -46 47 0
-39 46 47 0
48 32 0
48 47 0
-32 -47 -48 0
49 34 0
49 48 0
-34 -48 -49 0
50 31 0
50 40 0
-31 -40 -50 0
51 -49 0
51 50 0
49 -50 -51 0
-52 -32 0
-52 -2 0
32 2 52 0
-51 -52 -53 0
51 52 -53 0
-51 52 53 0
51 -52 53 0
-54 -30 0
-54 53 0
30 -53 54 0
-24 5 -55 0
24 -5 -55 0
-24 -5 55 0
24 5 55 0
-57 1 0
-57 56 0
-1 -56 57 0
-58 57 0
-58 -3 0
-57 3 58 0
-25 3 -59 0
25 -3 -59 0
-25 -3 59 0
25 3 59 0
60 58 0
60 59 0
-58 -59 -60 0
55 -60 -61 0
-55 60 -61 0
55 60 61 0
-55 -60 61 0
-2 22 -62 0
2 -22 -62 0
-2 -22 62 0
2 22 62 0
63 14 0
63 -38 0
-14 38 -63 0
-64 63 0
-64 -40 0
-63 40 64 0
-20 -8 -66 0
20 8 -66 0
-20 8 66 0
20 -8 66 0
67 20 0
67 -66 0
-20 66 -67 0
-25 67 -68 0
25 -67 -68 0
-25 -67 68 0
25 67 68 0
65 68 -69 0
-65 -68 -69 0
65 -68 69 0
-65 68 69 0
-70 64 0
-70 -69 0
-64 69 70 0
17 20 -71 0
-17 -20 -71 0
17 -20 71 0
-17 20 71 0
72 -70 0
72 -71 0
70 71 -72 0
-73 62 0
-73 -72 0
-62 72 73 0
-61 73 -74 0
61 -73 -74 0
-61 -73 74 0
61 73 74 0
-16 -26 -75 0
16 26 -75 0
-16 26 75 0
16 -26 75 0
-76 74 0
-76 -75 0
-74 75 76 0
77 37 0
77 25 0
-37 -25 -77 0
-27 1 -78 0
27 -1 -78 0
-27 -1 78 0
27 1 78 0
-79 -77 0
-79 78 0
77 -78 79 0
-23 -4 -80 0
23 4 -80 0
-23 4 80 0
23 -4 80 0
79 80 -81 0
-79 -80 -81 0
79 -80 81 0
-79 80 81 0
-33 -81 -82 0
33 81 -82 0
-33 81 82 0
33 -81 82 0
83 24 0
83 -81 0
-24 81 -83 0
84 -83 0
84 -14 0
83 14 -84 0
85 82 0
85 -84 0
-82 84 -85 0
-86 -17 0
-86 33 0
17 -33 86 0
87 86 0
87 -25 0
-86 25 -87 0
-88 41 0
-88 -87 0
-41 87 88 0
10 3 -89 0
-10 -3 -89 0
10 -3 89 0
-10 3 89 0
-24 -11 -90 0
24 11 -90 0
-24 11 90 0
24 -11 90 0
66 -90 -91 0
-66 90 -91 0
66 90 91 0
-66 -90 91 0
92 -5 0
92 -27 0
5 27 -92 0
-93 91 0
-93 92 0
-91 -92 93 0
94 89 0
94 93 0
-89 -93 -94 0
-95 -2 0
-95 42 0
2 -42 95 0
96 -94 0
96 -95 0
94 95 -96 0
88 -96 -97 0
-88 96 -97 0
88 96 97 0
-88 -96 97 0
85 -97 -98 0
-85 97 -98 0
85 97 98 0
-85 -97 98 0
-99 76 0
-99 -98 0
-76 98 99 0
100 -54 0
100 99 0
54 -99 -100 0
-101 -4 0
-101 40 0
4 -40 101 0
23 -68 -102 0
-23 68 -102 0
23 68 102 0
-23 -68 102 0
103 9 0
103 68 0
-9 -68 -103 0
-104 103 0
-104 66 0
-103 -66 104 0
105 11 0
105 59 0
-11 -59 -105 0
-106 104 0
-106 -105 0
-104 105 106 0
-107 102 0
-107 106 0
-102 -106 107 0
101 -107 -108 0
-101 107 -108 0
101 107 108 0
-101 -107 108 0
110 25 0
110 109 0
-25 -109 -110 0
-111 47 0
-111 66 0
-47 -66 111 0
-112 58 0
-112 2 0
-58 -2 112 0
-113 91 0
-113 6 0
-91 -6 113 0
112 113 -114 0
-112 -113 -114 0
112 -113 114 0
-112 113 114 0
115 111 0
115 114 0
-111 -114 -115 0
116 110 0
116 115 0
-110 -115 -116 0
-117 -108 0
-117 -116 0
108 116 117 0
118 -100 0
118 117 0
100 -117 -118 0
80 -47 29 0
-60 -84 -10 -50 44 0
115 -30 -109 -47 -86 0
-51 24 0
90 -3 -70 -55 -12 0
37 -6 93 -112 0
78 -27 -26 0
30 59 74 -47 0
51 -94 87 -11 4 0
41 -86 -34 21 60 0
-3 100 0
-14 6 73 34 45 95 0
-93 -7 -3 57 0
71 -70 -110 95 33 0
23 -53 -64 86 91 1 0
67 -10 50 0
-30 70 60 31 29 24 0
9 -69 0
-14 -33 -1 0
71 -45 98 35 0
-11 -28 -69 20 0
12 6 77 0
-80 23 105 113 -35 0
8 -113 -42 114 -2 0
111 37 -21 4 0
-117 56 -39 -111 0
47 60 -75 0
27 -49 -56 -60 -1 -84 0
-86 30 0
62 -6 0
97 -73 -38 84 -27 50 0
101 20 93 -106 -10 16 0
-18 -41 0
-75 42 34 -62 0
-35 36 -113 0
-102 8 18 118 0
93 56 -113 69 0
-30 -15 0
111 51 -80 0
-74 109 -69 18 0
97 -27 0
32 -20 0
26 -88 22 -79 40 0
-63 -67 -102 21 57 0
84 -17 0
29 -115 0
-38 56 76 -25 -112 -85 0
-32 37 26 -60 -102 81 0
70 54 10 -15 0
36 96 94 -42 0
13 24 0
99 98 101 11 0
118 0
